c read Graph
c width = 32
c time = 41 ms
c width = 5
c time = 68 ms
c width = 5
c time = 4999 ms
s td 41 6 45
b 1 1 2 10
b 2 2 3 10 11
b 3 7 8 17 18
b 4 3 10 11 19
b 5 7 17 18 27
b 6 19 28 29 38
b 7 27 35 36 44
b 8 19 29 38 39
b 9 27 35 43 44
b 10 3 4 5 13
b 11 5 6 7 15
b 12 3 11 12 19 20
b 13 7 16 17 26 27
b 14 19 20 29 30 39
b 15 26 27 34 35 43
b 16 19 20 30 39 40
b 17 32 40 41 42
b 18 26 27 34 42 43
b 19 5 13 14 15 23
b 20 3 12 19 20 30 40
b 21 3 12 20 21 30 40
b 22 3 12 13 21 30 40
b 23 3 5 13 21 30 40
b 24 5 13 21 22 30 40
b 25 5 13 22 30 31 40
b 26 5 13 22 23 31 40
b 27 5 13 15 23 31 40
b 28 5 15 23 31 32 40
b 29 5 7 15 23 32 40
b 30 7 15 23 24 32 40
b 31 7 15 16 24 32 40
b 32 16 24 25 26 34
b 33 24 32 33 34 42
b 34 7 16 24 32 40 42
b 35 7 16 26 27 34 42
b 36 7 16 24 26 34 42
b 37 7 16 24 32 34 42
b 38 24 32 34 42
b 39 36 44 45
b 40 28 37 38
b 41 8 9 18
1 2
2 4
3 41
3 5
4 12
5 13
6 40
6 8
7 39
7 9
8 14
9 15
10 23
11 29
12 20
13 35
14 16
15 18
16 20
17 34
18 35
19 27
20 21
21 22
22 23
23 24
24 25
25 26
26 27
27 28
28 29
29 30
30 31
31 34
32 36
33 38
34 37
35 36
36 37
37 38
